70
1 0 10
2 0 4
2 1 7
3 0 2
3 1 2
3 2 9
4 0 9
4 1 6
4 2 4
4 3 10
5 0 3
5 1 6
5 2 10
5 3 10
5 4 10
6 0 9
6 1 2
6 2 3
6 3 10
6 4 7
6 5 2
7 0 5
7 1 1
7 2 3
7 3 8
7 4 2
7 5 5
7 6 3
8 0 2
8 1 10
8 2 7
8 3 2
8 4 9
8 5 4
8 6 3
8 7 6
9 0 2
9 1 9
9 2 5
9 3 3
9 4 5
9 5 7
9 6 2
9 7 7
9 8 4
10 0 4
10 1 8
10 2 1
10 3 8
10 4 5
10 5 10
10 6 1
10 7 7
10 8 7
10 9 2
11 0 5
11 1 4
11 2 1
11 3 2
11 4 8
11 5 3
11 6 1
11 7 7
11 8 7
11 9 2
11 10 10
12 0 2
12 1 4
12 2 4
12 3 1
12 4 5
12 5 9
12 6 10
12 7 8
12 8 8
12 9 3
12 10 3
12 11 1
13 0 9
13 1 10
13 2 4
13 3 5
13 4 3
13 5 7
13 6 7
13 7 3
13 8 4
13 9 10
13 10 7
13 11 7
13 12 2
14 0 5
14 1 8
14 2 6
14 3 9
14 4 8
14 5 7
14 6 1
14 7 7
14 8 3
14 9 7
14 10 4
14 11 1
14 12 8
14 13 9
15 0 10
15 1 1
15 2 10
15 3 9
15 4 2
15 5 7
15 6 6
15 7 8
15 8 6
15 9 5
15 10 1
15 11 6
15 12 8
15 13 2
15 14 10
16 0 6
16 1 8
16 2 3
16 3 4
16 4 2
16 5 5
16 6 6
16 7 5
16 8 2
16 9 9
16 10 8
16 11 4
16 12 7
16 13 2
16 14 1
16 15 4
17 0 9
17 1 7
17 2 2
17 3 5
17 4 10
17 5 3
17 6 10
17 7 3
17 8 6
17 9 3
17 10 9
17 11 10
17 12 5
17 13 7
17 14 1
17 15 4
17 16 5
18 0 8
18 1 8
18 2 3
18 3 2
18 4 2
18 5 3
18 6 4
18 7 5
18 8 2
18 9 4
18 10 4
18 11 6
18 12 5
18 13 5
18 14 10
18 15 4
18 16 3
18 17 3
19 0 9
19 1 4
19 2 3
19 3 9
19 4 7
19 5 1
19 6 7
19 7 9
19 8 1
19 9 6
19 10 7
19 11 10
19 12 10
19 13 9
19 14 1
19 15 2
19 16 10
19 17 5
19 18 10
20 0 3
20 1 1
20 2 2
20 3 10
20 4 7
20 5 7
20 6 1
20 7 5
20 8 10
20 9 1
20 10 10
20 11 4
20 12 1
20 13 10
20 14 5
20 15 1
20 16 9
20 17 5
20 18 2
20 19 4
21 0 2
21 1 4
21 2 6
21 3 1
21 4 8
21 5 10
21 6 7
21 7 2
21 8 1
21 9 5
21 10 3
21 11 8
21 12 10
21 13 4
21 14 10
21 15 1
21 16 6
21 17 8
21 18 5
21 19 10
21 20 4
22 0 1
22 1 10
22 2 8
22 3 7
22 4 5
22 5 1
22 6 8
22 7 2
22 8 2
22 9 3
22 10 1
22 11 8
22 12 1
22 13 1
22 14 1
22 15 2
22 16 1
22 17 7
22 18 7
22 19 10
22 20 4
22 21 10
23 0 10
23 1 5
23 2 7
23 3 7
23 4 10
23 5 1
23 6 9
23 7 2
23 8 8
23 9 5
23 10 5
23 11 7
23 12 10
23 13 4
23 14 1
23 15 5
23 16 1
23 17 5
23 18 7
23 19 2
23 20 7
23 21 6
23 22 10
24 0 10
24 1 3
24 2 10
24 3 4
24 4 8
24 5 10
24 6 6
24 7 1
24 8 3
24 9 3
24 10 8
24 11 8
24 12 3
24 13 8
24 14 7
24 15 1
24 16 3
24 17 9
24 18 4
24 19 5
24 20 9
24 21 5
24 22 4
24 23 9
25 0 5
25 1 10
25 2 10
25 3 10
25 4 7
25 5 4
25 6 5
25 7 8
25 8 8
25 9 4
25 10 6
25 11 4
25 12 5
25 13 3
25 14 1
25 15 7
25 16 7
25 17 8
25 18 3
25 19 7
25 20 8
25 21 2
25 22 10
25 23 7
25 24 5
26 0 4
26 1 1
26 2 2
26 3 10
26 4 7
26 5 4
26 6 10
26 7 9
26 8 10
26 9 10
26 10 6
26 11 3
26 12 1
26 13 4
26 14 4
26 15 4
26 16 1
26 17 1
26 18 5
26 19 7
26 20 8
26 21 6
26 22 9
26 23 1
26 24 7
26 25 1
27 0 6
27 1 9
27 2 4
27 3 5
27 4 3
27 5 2
27 6 1
27 7 5
27 8 1
27 9 10
27 10 5
27 11 3
27 12 6
27 13 2
27 14 4
27 15 4
27 16 10
27 17 1
27 18 8
27 19 9
27 20 7
27 21 9
27 22 6
27 23 2
27 24 6
27 25 3
27 26 9
28 0 8
28 1 8
28 2 8
28 3 4
28 4 4
28 5 8
28 6 4
28 7 7
28 8 9
28 9 1
28 10 1
28 11 9
28 12 1
28 13 7
28 14 3
28 15 3
28 16 7
28 17 6
28 18 3
28 19 8
28 20 9
28 21 6
28 22 6
28 23 2
28 24 2
28 25 5
28 26 6
28 27 7
29 0 2
29 1 4
29 2 3
29 3 9
29 4 9
29 5 8
29 6 1
29 7 4
29 8 4
29 9 5
29 10 5
29 11 10
29 12 8
29 13 4
29 14 4
29 15 4
29 16 4
29 17 4
29 18 4
29 19 2
29 20 3
29 21 2
29 22 5
29 23 6
29 24 3
29 25 10
29 26 9
29 27 9
29 28 1
30 0 4
30 1 9
30 2 1
30 3 7
30 4 4
30 5 10
30 6 3
30 7 6
30 8 8
30 9 1
30 10 10
30 11 7
30 12 9
30 13 5
30 14 1
30 15 6
30 16 10
30 17 6
30 18 8
30 19 4
30 20 5
30 21 4
30 22 7
30 23 6
30 24 6
30 25 10
30 26 4
30 27 5
30 28 5
30 29 3
31 0 8
31 1 3
31 2 6
31 3 3
31 4 6
31 5 4
31 6 2
31 7 2
31 8 3
31 9 10
31 10 7
31 11 4
31 12 3
31 13 9
31 14 9
31 15 5
31 16 2
31 17 1
31 18 7
31 19 4
31 20 9
31 21 4
31 22 1
31 23 2
31 24 4
31 25 9
31 26 5
31 27 8
31 28 2
31 29 3
31 30 1
32 0 3
32 1 7
32 2 2
32 3 2
32 4 1
32 5 2
32 6 7
32 7 8
32 8 10
32 9 7
32 10 4
32 11 6
32 12 10
32 13 4
32 14 10
32 15 3
32 16 8
32 17 10
32 18 1
32 19 5
32 20 6
32 21 9
32 22 3
32 23 10
32 24 9
32 25 3
32 26 7
32 27 4
32 28 3
32 29 1
32 30 9
32 31 7
33 0 6
33 1 5
33 2 3
33 3 4
33 4 3
33 5 6
33 6 6
33 7 2
33 8 7
33 9 2
33 10 2
33 11 5
33 12 5
33 13 7
33 14 4
33 15 3
33 16 4
33 17 6
33 18 7
33 19 2
33 20 10
33 21 5
33 22 5
33 23 4
33 24 4
33 25 4
33 26 8
33 27 8
33 28 8
33 29 4
33 30 6
33 31 4
33 32 10
34 0 8
34 1 6
34 2 2
34 3 8
34 4 7
34 5 6
34 6 7
34 7 9
34 8 1
34 9 9
34 10 4
34 11 6
34 12 5
34 13 10
34 14 7
34 15 1
34 16 6
34 17 6
34 18 8
34 19 3
34 20 6
34 21 1
34 22 4
34 23 6
34 24 7
34 25 8
34 26 1
34 27 2
34 28 2
34 29 10
34 30 1
34 31 10
34 32 10
34 33 7
35 0 8
35 1 10
35 2 6
35 3 5
35 4 2
35 5 10
35 6 9
35 7 2
35 8 10
35 9 5
35 10 3
35 11 9
35 12 7
35 13 3
35 14 2
35 15 6
35 16 6
35 17 9
35 18 2
35 19 9
35 20 10
35 21 10
35 22 3
35 23 7
35 24 4
35 25 6
35 26 8
35 27 3
35 28 9
35 29 3
35 30 1
35 31 1
35 32 7
35 33 10
35 34 6
36 0 7
36 1 7
36 2 5
36 3 7
36 4 3
36 5 8
36 6 3
36 7 10
36 8 5
36 9 9
36 10 8
36 11 5
36 12 10
36 13 1
36 14 3
36 15 6
36 16 3
36 17 9
36 18 10
36 19 10
36 20 3
36 21 5
36 22 4
36 23 2
36 24 1
36 25 3
36 26 10
36 27 8
36 28 2
36 29 3
36 30 1
36 31 1
36 32 8
36 33 7
36 34 9
36 35 8
37 0 6
37 1 10
37 2 2
37 3 10
37 4 1
37 5 10
37 6 3
37 7 10
37 8 10
37 9 1
37 10 3
37 11 10
37 12 9
37 13 8
37 14 3
37 15 3
37 16 9
37 17 9
37 18 6
37 19 10
37 20 2
37 21 8
37 22 2
37 23 1
37 24 3
37 25 4
37 26 2
37 27 3
37 28 1
37 29 8
37 30 10
37 31 7
37 32 7
37 33 1
37 34 3
37 35 6
37 36 2
38 0 1
38 1 5
38 2 6
38 3 9
38 4 10
38 5 4
38 6 5
38 7 1
38 8 7
38 9 1
38 10 4
38 11 10
38 12 3
38 13 9
38 14 7
38 15 7
38 16 2
38 17 3
38 18 5
38 19 4
38 20 5
38 21 1
38 22 4
38 23 7
38 24 7
38 25 9
38 26 2
38 27 5
38 28 3
38 29 8
38 30 3
38 31 10
38 32 1
38 33 4
38 34 4
38 35 1
38 36 5
38 37 4
39 0 10
39 1 1
39 2 5
39 3 2
39 4 1
39 5 8
39 6 1
39 7 3
39 8 1
39 9 7
39 10 3
39 11 4
39 12 6
39 13 1
39 14 2
39 15 1
39 16 3
39 17 10
39 18 1
39 19 7
39 20 7
39 21 6
39 22 10
39 23 2
39 24 7
39 25 8
39 26 8
39 27 3
39 28 10
39 29 8
39 30 10
39 31 7
39 32 1
39 33 5
39 34 9
39 35 4
39 36 6
39 37 2
39 38 8
40 0 7
40 1 5
40 2 5
40 3 6
40 4 7
40 5 5
40 6 8
40 7 6
40 8 4
40 9 6
40 10 7
40 11 3
40 12 5
40 13 8
40 14 7
40 15 8
40 16 1
40 17 1
40 18 3
40 19 3
40 20 6
40 21 9
40 22 8
40 23 4
40 24 6
40 25 2
40 26 8
40 27 8
40 28 8
40 29 6
40 30 7
40 31 2
40 32 10
40 33 6
40 34 1
40 35 6
40 36 1
40 37 1
40 38 2
40 39 7
41 0 1
41 1 4
41 2 9
41 3 9
41 4 3
41 5 9
41 6 5
41 7 6
41 8 4
41 9 8
41 10 10
41 11 9
41 12 6
41 13 7
41 14 8
41 15 6
41 16 1
41 17 9
41 18 8
41 19 5
41 20 7
41 21 7
41 22 4
41 23 1
41 24 6
41 25 5
41 26 4
41 27 5
41 28 2
41 29 4
41 30 3
41 31 10
41 32 3
41 33 6
41 34 8
41 35 8
41 36 8
41 37 1
41 38 9
41 39 2
41 40 7
42 0 7
42 1 8
42 2 10
42 3 5
42 4 1
42 5 9
42 6 8
42 7 7
42 8 6
42 9 8
42 10 2
42 11 2
42 12 1
42 13 7
42 14 5
42 15 8
42 16 1
42 17 2
42 18 1
42 19 1
42 20 2
42 21 5
42 22 5
42 23 9
42 24 8
42 25 7
42 26 7
42 27 5
42 28 10
42 29 10
42 30 6
42 31 6
42 32 2
42 33 3
42 34 4
42 35 3
42 36 5
42 37 10
42 38 8
42 39 3
42 40 9
42 41 2
43 0 4
43 1 5
43 2 10
43 3 6
43 4 10
43 5 4
43 6 8
43 7 6
43 8 7
43 9 7
43 10 5
43 11 6
43 12 6
43 13 2
43 14 9
43 15 10
43 16 6
43 17 6
43 18 10
43 19 10
43 20 4
43 21 3
43 22 5
43 23 1
43 24 4
43 25 8
43 26 1
43 27 9
43 28 5
43 29 4
43 30 5
43 31 8
43 32 4
43 33 5
43 34 2
43 35 10
43 36 5
43 37 6
43 38 5
43 39 7
43 40 1
43 41 10
43 42 4
44 0 9
44 1 10
44 2 5
44 3 9
44 4 8
44 5 2
44 6 6
44 7 6
44 8 10
44 9 2
44 10 2
44 11 1
44 12 4
44 13 7
44 14 4
44 15 8
44 16 1
44 17 3
44 18 5
44 19 4
44 20 3
44 21 5
44 22 8
44 23 10
44 24 3
44 25 1
44 26 2
44 27 5
44 28 6
44 29 5
44 30 6
44 31 2
44 32 3
44 33 5
44 34 3
44 35 9
44 36 2
44 37 3
44 38 5
44 39 9
44 40 10
44 41 1
44 42 7
44 43 7
45 0 2
45 1 3
45 2 9
45 3 9
45 4 1
45 5 7
45 6 7
45 7 8
45 8 5
45 9 5
45 10 8
45 11 1
45 12 6
45 13 10
45 14 1
45 15 5
45 16 10
45 17 1
45 18 9
45 19 3
45 20 3
45 21 3
45 22 7
45 23 3
45 24 8
45 25 1
45 26 9
45 27 2
45 28 5
45 29 10
45 30 1
45 31 5
45 32 9
45 33 5
45 34 7
45 35 6
45 36 8
45 37 2
45 38 8
45 39 6
45 40 2
45 41 5
45 42 2
45 43 9
45 44 3
46 0 7
46 1 5
46 2 1
46 3 8
46 4 5
46 5 10
46 6 8
46 7 4
46 8 4
46 9 9
46 10 9
46 11 10
46 12 8
46 13 10
46 14 1
46 15 2
46 16 1
46 17 9
46 18 7
46 19 6
46 20 6
46 21 4
46 22 10
46 23 6
46 24 4
46 25 10
46 26 8
46 27 10
46 28 3
46 29 1
46 30 6
46 31 4
46 32 2
46 33 8
46 34 4
46 35 2
46 36 4
46 37 6
46 38 10
46 39 5
46 40 7
46 41 5
46 42 9
46 43 6
46 44 6
46 45 9
47 0 8
47 1 8
47 2 2
47 3 10
47 4 6
47 5 4
47 6 9
47 7 9
47 8 8
47 9 3
47 10 6
47 11 9
47 12 9
47 13 10
47 14 1
47 15 4
47 16 9
47 17 9
47 18 8
47 19 1
47 20 10
47 21 2
47 22 3
47 23 6
47 24 7
47 25 6
47 26 1
47 27 1
47 28 7
47 29 9
47 30 9
47 31 2
47 32 1
47 33 9
47 34 2
47 35 5
47 36 3
47 37 1
47 38 7
47 39 3
47 40 8
47 41 3
47 42 1
47 43 5
47 44 5
47 45 2
47 46 8
48 0 7
48 1 8
48 2 2
48 3 3
48 4 10
48 5 1
48 6 1
48 7 6
48 8 4
48 9 3
48 10 8
48 11 1
48 12 4
48 13 9
48 14 6
48 15 6
48 16 7
48 17 2
48 18 2
48 19 3
48 20 8
48 21 1
48 22 3
48 23 1
48 24 7
48 25 10
48 26 9
48 27 8
48 28 1
48 29 5
48 30 9
48 31 1
48 32 2
48 33 8
48 34 7
48 35 3
48 36 3
48 37 9
48 38 7
48 39 7
48 40 8
48 41 9
48 42 9
48 43 9
48 44 9
48 45 10
48 46 4
48 47 8
49 0 10
49 1 3
49 2 8
49 3 10
49 4 9
49 5 7
49 6 1
49 7 10
49 8 1
49 9 2
49 10 8
49 11 10
49 12 9
49 13 2
49 14 2
49 15 4
49 16 6
49 17 4
49 18 8
49 19 7
49 20 10
49 21 2
49 22 2
49 23 3
49 24 5
49 25 2
49 26 9
49 27 3
49 28 3
49 29 7
49 30 4
49 31 9
49 32 4
49 33 3
49 34 10
49 35 6
49 36 2
49 37 8
49 38 3
49 39 8
49 40 4
49 41 3
49 42 5
49 43 9
49 44 5
49 45 7
49 46 1
49 47 8
49 48 3
50 0 4
50 1 8
50 2 5
50 3 4
50 4 6
50 5 8
50 6 1
50 7 3
50 8 9
50 9 1
50 10 5
50 11 5
50 12 4
50 13 6
50 14 9
50 15 10
50 16 6
50 17 4
50 18 4
50 19 8
50 20 6
50 21 6
50 22 6
50 23 4
50 24 10
50 25 7
50 26 9
50 27 1
50 28 1
50 29 2
50 30 10
50 31 10
50 32 7
50 33 8
50 34 4
50 35 7
50 36 10
50 37 8
50 38 1
50 39 3
50 40 3
50 41 1
50 42 1
50 43 5
50 44 2
50 45 1
50 46 5
50 47 4
50 48 1
50 49 1
51 0 6
51 1 4
51 2 5
51 3 6
51 4 9
51 5 4
51 6 8
51 7 8
51 8 6
51 9 9
51 10 8
51 11 1
51 12 10
51 13 4
51 14 2
51 15 6
51 16 8
51 17 2
51 18 10
51 19 8
51 20 7
51 21 1
51 22 7
51 23 3
51 24 10
51 25 7
51 26 1
51 27 7
51 28 6
51 29 6
51 30 3
51 31 8
51 32 1
51 33 6
51 34 8
51 35 8
51 36 4
51 37 5
51 38 6
51 39 1
51 40 1
51 41 9
51 42 4
51 43 6
51 44 10
51 45 8
51 46 4
51 47 8
51 48 2
51 49 9
51 50 3
52 0 9
52 1 7
52 2 4
52 3 5
52 4 2
52 5 1
52 6 10
52 7 4
52 8 10
52 9 6
52 10 2
52 11 9
52 12 3
52 13 4
52 14 4
52 15 8
52 16 9
52 17 5
52 18 10
52 19 10
52 20 3
52 21 4
52 22 7
52 23 3
52 24 3
52 25 8
52 26 4
52 27 8
52 28 1
52 29 3
52 30 8
52 31 2
52 32 5
52 33 10
52 34 1
52 35 4
52 36 3
52 37 5
52 38 5
52 39 10
52 40 4
52 41 7
52 42 9
52 43 6
52 44 7
52 45 7
52 46 3
52 47 9
52 48 6
52 49 3
52 50 9
52 51 2
53 0 1
53 1 7
53 2 5
53 3 3
53 4 9
53 5 2
53 6 4
53 7 5
53 8 2
53 9 5
53 10 3
53 11 8
53 12 3
53 13 7
53 14 4
53 15 5
53 16 7
53 17 5
53 18 9
53 19 4
53 20 9
53 21 7
53 22 9
53 23 6
53 24 5
53 25 6
53 26 2
53 27 10
53 28 6
53 29 2
53 30 3
53 31 5
53 32 3
53 33 10
53 34 1
53 35 4
53 36 5
53 37 8
53 38 8
53 39 1
53 40 7
53 41 5
53 42 6
53 43 5
53 44 9
53 45 10
53 46 4
53 47 1
53 48 3
53 49 10
53 50 8
53 51 10
53 52 7
54 0 10
54 1 10
54 2 10
54 3 7
54 4 10
54 5 3
54 6 7
54 7 2
54 8 6
54 9 6
54 10 5
54 11 4
54 12 2
54 13 5
54 14 10
54 15 4
54 16 6
54 17 7
54 18 10
54 19 5
54 20 6
54 21 3
54 22 4
54 23 2
54 24 10
54 25 1
54 26 10
54 27 4
54 28 9
54 29 10
54 30 8
54 31 8
54 32 2
54 33 5
54 34 7
54 35 8
54 36 2
54 37 10
54 38 6
54 39 9
54 40 8
54 41 2
54 42 1
54 43 9
54 44 1
54 45 10
54 46 7
54 47 10
54 48 1
54 49 7
54 50 6
54 51 9
54 52 1
54 53 4
55 0 1
55 1 1
55 2 5
55 3 3
55 4 8
55 5 2
55 6 6
55 7 3
55 8 7
55 9 1
55 10 5
55 11 4
55 12 6
55 13 8
55 14 7
55 15 8
55 16 2
55 17 5
55 18 9
55 19 7
55 20 3
55 21 8
55 22 10
55 23 2
55 24 9
55 25 7
55 26 9
55 27 10
55 28 9
55 29 10
55 30 4
55 31 1
55 32 2
55 33 10
55 34 3
55 35 5
55 36 5
55 37 8
55 38 3
55 39 5
55 40 5
55 41 1
55 42 1
55 43 6
55 44 5
55 45 6
55 46 9
55 47 1
55 48 8
55 49 4
55 50 5
55 51 5
55 52 8
55 53 10
55 54 7
56 0 8
56 1 4
56 2 10
56 3 10
56 4 5
56 5 9
56 6 9
56 7 2
56 8 1
56 9 6
56 10 5
56 11 7
56 12 10
56 13 6
56 14 2
56 15 6
56 16 8
56 17 3
56 18 1
56 19 5
56 20 6
56 21 4
56 22 8
56 23 4
56 24 4
56 25 2
56 26 6
56 27 1
56 28 10
56 29 5
56 30 5
56 31 7
56 32 5
56 33 3
56 34 8
56 35 2
56 36 4
56 37 8
56 38 8
56 39 8
56 40 8
56 41 5
56 42 5
56 43 6
56 44 5
56 45 9
56 46 9
56 47 7
56 48 8
56 49 6
56 50 7
56 51 10
56 52 7
56 53 3
56 54 4
56 55 6
57 0 8
57 1 8
57 2 4
57 3 6
57 4 1
57 5 10
57 6 1
57 7 8
57 8 9
57 9 1
57 10 10
57 11 6
57 12 2
57 13 10
57 14 3
57 15 7
57 16 1
57 17 8
57 18 7
57 19 4
57 20 1
57 21 4
57 22 3
57 23 10
57 24 10
57 25 9
57 26 10
57 27 2
57 28 7
57 29 6
57 30 10
57 31 9
57 32 3
57 33 6
57 34 3
57 35 3
57 36 6
57 37 5
57 38 8
57 39 10
57 40 3
57 41 5
57 42 2
57 43 9
57 44 10
57 45 4
57 46 10
57 47 10
57 48 3
57 49 4
57 50 3
57 51 8
57 52 5
57 53 3
57 54 3
57 55 1
57 56 10
58 0 3
58 1 5
58 2 3
58 3 8
58 4 9
58 5 8
58 6 10
58 7 5
58 8 7
58 9 1
58 10 9
58 11 6
58 12 9
58 13 8
58 14 6
58 15 1
58 16 1
58 17 4
58 18 9
58 19 5
58 20 1
58 21 10
58 22 4
58 23 10
58 24 3
58 25 7
58 26 9
58 27 3
58 28 10
58 29 9
58 30 9
58 31 5
58 32 5
58 33 10
58 34 4
58 35 7
58 36 2
58 37 7
58 38 7
58 39 3
58 40 7
58 41 7
58 42 3
58 43 9
58 44 6
58 45 4
58 46 9
58 47 8
58 48 8
58 49 9
58 50 9
58 51 9
58 52 9
58 53 8
58 54 4
58 55 3
58 56 8
58 57 8
59 0 9
59 1 5
59 2 7
59 3 8
59 4 3
59 5 7
59 6 4
59 7 2
59 8 10
59 9 1
59 10 7
59 11 5
59 12 10
59 13 5
59 14 3
59 15 9
59 16 4
59 17 4
59 18 4
59 19 2
59 20 3
59 21 10
59 22 1
59 23 8
59 24 9
59 25 2
59 26 10
59 27 4
59 28 7
59 29 10
59 30 2
59 31 4
59 32 1
59 33 2
59 34 5
59 35 9
59 36 9
59 37 9
59 38 6
59 39 10
59 40 6
59 41 2
59 42 7
59 43 5
59 44 6
59 45 8
59 46 3
59 47 5
59 48 5
59 49 7
59 50 4
59 51 5
59 52 10
59 53 3
59 54 6
59 55 10
59 56 4
59 57 4
59 58 5
60 0 10
60 1 7
60 2 4
60 3 10
60 4 9
60 5 8
60 6 3
60 7 2
60 8 3
60 9 7
60 10 7
60 11 7
60 12 4
60 13 8
60 14 1
60 15 5
60 16 5
60 17 2
60 18 5
60 19 6
60 20 1
60 21 4
60 22 10
60 23 1
60 24 5
60 25 2
60 26 9
60 27 3
60 28 8
60 29 6
60 30 10
60 31 7
60 32 2
60 33 8
60 34 3
60 35 5
60 36 2
60 37 4
60 38 8
60 39 5
60 40 8
60 41 10
60 42 6
60 43 7
60 44 10
60 45 9
60 46 8
60 47 2
60 48 9
60 49 2
60 50 6
60 51 7
60 52 8
60 53 3
60 54 2
60 55 9
60 56 1
60 57 7
60 58 3
60 59 2
61 0 5
61 1 4
61 2 6
61 3 3
61 4 6
61 5 9
61 6 8
61 7 1
61 8 5
61 9 7
61 10 3
61 11 4
61 12 7
61 13 10
61 14 4
61 15 4
61 16 3
61 17 2
61 18 3
61 19 10
61 20 10
61 21 6
61 22 9
61 23 2
61 24 8
61 25 6
61 26 6
61 27 4
61 28 3
61 29 10
61 30 10
61 31 5
61 32 4
61 33 6
61 34 9
61 35 4
61 36 6
61 37 6
61 38 4
61 39 5
61 40 6
61 41 7
61 42 1
61 43 8
61 44 8
61 45 4
61 46 2
61 47 9
61 48 6
61 49 4
61 50 5
61 51 4
61 52 8
61 53 10
61 54 4
61 55 4
61 56 3
61 57 8
61 58 9
61 59 1
61 60 10
62 0 9
62 1 5
62 2 1
62 3 7
62 4 8
62 5 6
62 6 2
62 7 1
62 8 10
62 9 7
62 10 7
62 11 1
62 12 8
62 13 2
62 14 6
62 15 9
62 16 5
62 17 5
62 18 10
62 19 6
62 20 10
62 21 8
62 22 10
62 23 2
62 24 7
62 25 4
62 26 9
62 27 4
62 28 9
62 29 3
62 30 3
62 31 2
62 32 1
62 33 7
62 34 10
62 35 3
62 36 9
62 37 4
62 38 9
62 39 3
62 40 8
62 41 4
62 42 7
62 43 2
62 44 8
62 45 2
62 46 3
62 47 2
62 48 8
62 49 10
62 50 2
62 51 5
62 52 2
62 53 4
62 54 6
62 55 1
62 56 8
62 57 10
62 58 3
62 59 10
62 60 1
62 61 9
63 0 1
63 1 9
63 2 1
63 3 9
63 4 7
63 5 7
63 6 4
63 7 7
63 8 8
63 9 5
63 10 5
63 11 2
63 12 3
63 13 9
63 14 1
63 15 8
63 16 3
63 17 8
63 18 3
63 19 4
63 20 1
63 21 9
63 22 2
63 23 8
63 24 6
63 25 5
63 26 4
63 27 8
63 28 2
63 29 9
63 30 4
63 31 3
63 32 5
63 33 7
63 34 2
63 35 6
63 36 7
63 37 5
63 38 10
63 39 6
63 40 1
63 41 3
63 42 6
63 43 6
63 44 4
63 45 2
63 46 5
63 47 4
63 48 5
63 49 3
63 50 2
63 51 4
63 52 4
63 53 9
63 54 9
63 55 1
63 56 7
63 57 2
63 58 2
63 59 1
63 60 7
63 61 5
63 62 9
64 0 5
64 1 6
64 2 10
64 3 5
64 4 6
64 5 5
64 6 2
64 7 10
64 8 9
64 9 8
64 10 2
64 11 1
64 12 9
64 13 7
64 14 8
64 15 10
64 16 2
64 17 6
64 18 4
64 19 7
64 20 7
64 21 7
64 22 5
64 23 1
64 24 7
64 25 7
64 26 5
64 27 3
64 28 8
64 29 4
64 30 6
64 31 9
64 32 3
64 33 4
64 34 9
64 35 3
64 36 7
64 37 7
64 38 10
64 39 7
64 40 10
64 41 4
64 42 8
64 43 4
64 44 4
64 45 5
64 46 6
64 47 6
64 48 1
64 49 3
64 50 5
64 51 10
64 52 7
64 53 8
64 54 2
64 55 10
64 56 1
64 57 10
64 58 10
64 59 6
64 60 10
64 61 6
64 62 7
64 63 7
65 0 4
65 1 2
65 2 8
65 3 8
65 4 8
65 5 8
65 6 4
65 7 3
65 8 5
65 9 3
65 10 6
65 11 5
65 12 6
65 13 6
65 14 6
65 15 7
65 16 4
65 17 10
65 18 9
65 19 4
65 20 5
65 21 1
65 22 10
65 23 7
65 24 2
65 25 5
65 26 1
65 27 3
65 28 3
65 29 9
65 30 6
65 31 10
65 32 1
65 33 3
65 34 6
65 35 2
65 36 7
65 37 10
65 38 2
65 39 3
65 40 7
65 41 4
65 42 9
65 43 8
65 44 8
65 45 7
65 46 9
65 47 3
65 48 8
65 49 10
65 50 2
65 51 10
65 52 10
65 53 9
65 54 4
65 55 4
65 56 7
65 57 6
65 58 3
65 59 8
65 60 3
65 61 9
65 62 3
65 63 10
65 64 7
66 0 7
66 1 8
66 2 4
66 3 1
66 4 3
66 5 1
66 6 10
66 7 7
66 8 8
66 9 4
66 10 9
66 11 6
66 12 4
66 13 6
66 14 5
66 15 6
66 16 4
66 17 1
66 18 4
66 19 4
66 20 8
66 21 3
66 22 9
66 23 4
66 24 2
66 25 10
66 26 9
66 27 1
66 28 9
66 29 9
66 30 9
66 31 5
66 32 10
66 33 8
66 34 10
66 35 2
66 36 10
66 37 1
66 38 5
66 39 2
66 40 1
66 41 7
66 42 6
66 43 10
66 44 10
66 45 7
66 46 2
66 47 2
66 48 5
66 49 9
66 50 2
66 51 6
66 52 5
66 53 6
66 54 10
66 55 7
66 56 1
66 57 5
66 58 3
66 59 5
66 60 2
66 61 10
66 62 7
66 63 9
66 64 2
66 65 2
67 0 3
67 1 2
67 2 3
67 3 9
67 4 5
67 5 6
67 6 1
67 7 7
67 8 8
67 9 1
67 10 9
67 11 9
67 12 10
67 13 2
67 14 2
67 15 3
67 16 3
67 17 5
67 18 6
67 19 6
67 20 1
67 21 3
67 22 9
67 23 5
67 24 9
67 25 4
67 26 6
67 27 8
67 28 1
67 29 10
67 30 1
67 31 8
67 32 9
67 33 3
67 34 6
67 35 3
67 36 5
67 37 6
67 38 8
67 39 8
67 40 1
67 41 5
67 42 6
67 43 8
67 44 8
67 45 1
67 46 1
67 47 1
67 48 2
67 49 5
67 50 5
67 51 5
67 52 1
67 53 10
67 54 7
67 55 5
67 56 6
67 57 3
67 58 5
67 59 5
67 60 1
67 61 8
67 62 1
67 63 2
67 64 10
67 65 8
67 66 5
68 0 6
68 1 5
68 2 5
68 3 2
68 4 8
68 5 5
68 6 4
68 7 6
68 8 5
68 9 4
68 10 7
68 11 5
68 12 4
68 13 6
68 14 1
68 15 5
68 16 6
68 17 4
68 18 5
68 19 1
68 20 7
68 21 10
68 22 10
68 23 9
68 24 2
68 25 3
68 26 9
68 27 7
68 28 9
68 29 1
68 30 8
68 31 10
68 32 10
68 33 7
68 34 5
68 35 2
68 36 4
68 37 4
68 38 2
68 39 6
68 40 4
68 41 8
68 42 4
68 43 3
68 44 3
68 45 7
68 46 9
68 47 5
68 48 8
68 49 8
68 50 9
68 51 1
68 52 2
68 53 4
68 54 3
68 55 2
68 56 7
68 57 7
68 58 6
68 59 9
68 60 4
68 61 9
68 62 1
68 63 3
68 64 1
68 65 1
68 66 5
68 67 7
69 0 8
69 1 1
69 2 1
69 3 9
69 4 8
69 5 3
69 6 6
69 7 4
69 8 9
69 9 8
69 10 2
69 11 9
69 12 1
69 13 6
69 14 8
69 15 2
69 16 10
69 17 9
69 18 1
69 19 8
69 20 2
69 21 5
69 22 6
69 23 1
69 24 3
69 25 1
69 26 3
69 27 4
69 28 1
69 29 4
69 30 10
69 31 3
69 32 9
69 33 3
69 34 3
69 35 6
69 36 8
69 37 6
69 38 2
69 39 7
69 40 1
69 41 1
69 42 6
69 43 8
69 44 9
69 45 8
69 46 8
69 47 8
69 48 9
69 49 1
69 50 5
69 51 8
69 52 8
69 53 1
69 54 1
69 55 2
69 56 5
69 57 7
69 58 4
69 59 4
69 60 4
69 61 9
69 62 8
69 63 2
69 64 8
69 65 5
69 66 1
69 67 5
69 68 1
